DIMENSION: 6
EDGE_WEIGHT_TYPE: EXPLICIT
EDGE_WEIGHT_FORMAT: FULL_MATRIX
EDGE_WEIGHT_SECTION:
32767 32767 32767 50 46 63 
32767 32767 97 42 22 32767 
32767 97 32767 64 70 92 
50 42 64 32767 8 50 
46 22 70 8 32767 32767 
63 32767 92 50 32767 32767 
EOF